* #variable= 26 #constraint= 3 
+1 x1 -1 x14 +2 x2 -2 x15 +4 x3 -4 x16 +8 x4 -8 x17 +16 x5 -16 x18 +32 x6 -32 x19 +64 x7 -64 x20 +128 x8 -128 x21 +256 x9 -256 x22 +512 x10 -512 x23 +1024 x11 -1024 x24 +2048 x12 -2048 x25 +4096 x13 -4096 x26 = 0 ;
-1 x7 -1 x20 >= -1; 
+1 x7 +1 x20 >= 1; 
